0
Node Left Objective IInf Best_Integer Best_Bound ItCnt Gap
0+ 0 nan nan 136.4723 0.0000 nan 100.00%
0+ 0 nan nan 99.1655 0.0000 nan 100.00%
0 0 0.0000 27 99.1655 0.0000 129 100.00%
0 0 0.0000 25 99.1655 LiftProj:1 133 100.00%
0 0 0.0000 25 99.1655 LiftProj:4 148 100.00%
0 0 0.0000 26 99.1655 LiftProj:6 161 100.00%
0+ 0 nan nan 91.4750 0.0000 nan 100.00%
0+ 0 nan nan 88.5600 0.0000 nan 100.00%
0+ 0 nan nan 87.6658 0.0000 nan 100.00%
0 2 0.0000 25 87.6658 0.0000 161 100.00%
CPXPARAM_MIP_Cuts_LiftProj 1
1
Node Left Objective IInf Best_Integer Best_Bound ItCnt Gap
0+ 0 nan nan 136.4723 0.0000 nan 100.00%
0+ 0 nan nan 99.1655 0.0000 nan 100.00%
0 0 0.0000 27 99.1655 0.0000 128 100.00%
0+ 0 nan nan 81.0831 0.0000 nan 100.00%
0 0 0.0000 18 81.0831 LiftProj:2 139 100.00%
0 0 0.0000 19 81.0831 LiftProj:3 158 100.00%
0 0 0.0000 18 81.0831 LiftProj:4 179 100.00%
0 2 0.0000 18 81.0831 0.0000 179 100.00%
CPXPARAM_MIP_Cuts_LiftProj 2
2
Node Left Objective IInf Best_Integer Best_Bound ItCnt Gap
0+ 0 nan nan 136.4723 0.0000 nan 100.00%
0+ 0 nan nan 69.8576 0.0000 nan 100.00%
0 0 0.0000 23 69.8576 0.0000 121 100.00%
0 0 0.0000 19 69.8576 LiftProj:3 127 100.00%
0+ 0 nan nan 64.0713 0.0000 nan 100.00%
0 0 0.0000 20 64.0713 LiftProj:3 156 100.00%
0 0 0.0000 21 64.0713 LiftProj:3 168 100.00%
0+ 0 nan nan 61.4299 0.0000 nan 100.00%
0+ 0 nan nan 59.6754 0.0000 nan 100.00%
0 2 0.0000 20 59.6754 0.0000 168 100.00%
CPXPARAM_MIP_Cuts_LiftProj 0
3
Node Left Objective IInf Best_Integer Best_Bound ItCnt Gap
0+ 0 nan nan 136.4723 0.0000 nan 100.00%
0+ 0 nan nan 69.8576 0.0000 nan 100.00%
0 0 0.0000 24 69.8576 0.0000 115 100.00%
0+ 0 nan nan 58.0305 0.0000 nan 100.00%
0 0 0.0000 14 58.0305 LiftProj:1 117 100.00%
0 0 0.0000 15 58.0305 LiftProj:5 146 100.00%
0+ 0 nan nan 57.2879 0.0000 nan 100.00%
0 0 0.0000 14 57.2879 LiftProj:2 155 100.00%
0+ 0 nan nan 51.8135 0.0000 nan 100.00%
0+ 0 nan nan 38.6722 0.0000 nan 100.00%
0 2 0.0000 14 38.6722 0.0000 155 100.00%
CPXPARAM_MIP_Cuts_LiftProj 2
4
Node Left Objective IInf Best_Integer Best_Bound ItCnt Gap
0+ 0 nan nan 115.1924 0.0000 nan 100.00%
0+ 0 nan nan 108.1598 0.0000 nan 100.00%
0+ 0 nan nan 98.2525 0.0000 nan 100.00%
0 0 0.0000 27 98.2525 0.0000 135 100.00%
0 0 0.0000 26 98.2525 LiftProj:2 145 100.00%
0+ 0 nan nan 92.7013 0.0000 nan 100.00%
0 0 0.0000 26 92.7013 LiftProj:3 163 100.00%
0 0 0.0000 26 92.7013 LiftProj:7 197 100.00%
0+ 0 nan nan 91.7795 0.0000 nan 100.00%
0+ 0 nan nan 82.3563 0.0000 nan 100.00%
0+ 0 nan nan 64.1683 0.0000 nan 100.00%
0 2 0.0000 25 64.1683 0.0000 197 100.00%
CPXPARAM_MIP_Cuts_LiftProj 0
5
Node Left Objective IInf Best_Integer Best_Bound ItCnt Gap
0+ 0 nan nan 115.1924 0.0000 nan 100.00%
0+ 0 nan nan 108.1598 0.0000 nan 100.00%
0+ 0 nan nan 79.8300 0.0000 nan 100.00%
0 0 0.0000 27 79.8300 0.0000 133 100.00%
0+ 0 nan nan 76.7844 0.0000 nan 100.00%
0+ 0 nan nan 65.0419 0.0000 nan 100.00%
0+ 0 nan nan 51.7641 0.0000 nan 100.00%
0 2 0.0000 18 51.7641 0.0000 133 100.00%
CPXPARAM_MIP_Cuts_LiftProj 0
6
Node Left Objective IInf Best_Integer Best_Bound ItCnt Gap
0+ 0 nan nan 115.1924 0.0000 nan 100.00%
0+ 0 nan nan 81.9438 0.0000 nan 100.00%
0 0 0.0000 23 81.9438 0.0000 129 100.00%
0+ 0 nan nan 80.6567 0.0000 nan 100.00%
0+ 0 nan nan 71.5270 0.0000 nan 100.00%
0+ 0 nan nan 69.1293 0.0000 nan 100.00%
0+ 0 nan nan 56.6842 0.0000 nan 100.00%
0 2 0.0000 20 56.6842 0.0000 129 100.00%
CPXPARAM_MIP_Cuts_LiftProj 0
7
Node Left Objective IInf Best_Integer Best_Bound ItCnt Gap
0+ 0 nan nan 115.1924 0.0000 nan 100.00%
0+ 0 nan nan 81.9438 0.0000 nan 100.00%
0 0 0.0000 23 81.9438 0.0000 122 100.00%
0+ 0 nan nan 68.4953 0.0000 nan 100.00%
0 0 0.0000 14 68.4953 LiftProj:1 133 100.00%
0+ 0 nan nan 59.1022 0.0000 nan 100.00%
0 0 0.0000 15 59.1022 LiftProj:6 149 100.00%
0+ 0 nan nan 58.6107 0.0000 nan 100.00%
0+ 0 nan nan 38.9712 0.0000 nan 100.00%
0 2 0.0000 13 38.9712 0.0000 149 100.00%
CPXPARAM_MIP_Cuts_LiftProj 0
8
Node Left Objective IInf Best_Integer Best_Bound ItCnt Gap
0+ 0 nan nan 131.6037 0.0000 nan 100.00%
0+ 0 nan nan 111.2422 0.0000 nan 100.00%
0+ 0 nan nan 109.8445 0.0000 nan 100.00%
0 0 0.0000 27 109.8445 0.0000 114 100.00%
0+ 0 nan nan 102.0897 0.0000 nan 100.00%
0+ 0 nan nan 92.9624 0.0000 nan 100.00%
0 2 0.0000 26 92.9624 0.0000 114 100.00%
CPXPARAM_MIP_Cuts_LiftProj 0
9
Node Left Objective IInf Best_Integer Best_Bound ItCnt Gap
0+ 0 nan nan 131.6037 0.0000 nan 100.00%
0+ 0 nan nan 111.2422 0.0000 nan 100.00%
0 0 0.0000 27 111.2422 0.0000 125 100.00%
0+ 0 nan nan 88.6818 0.0000 nan 100.00%
0+ 0 nan nan 88.2535 0.0000 nan 100.00%
0+ 0 nan nan 70.2250 0.0000 nan 100.00%
0 2 0.0000 18 70.2250 0.0000 125 100.00%
CPXPARAM_MIP_Cuts_LiftProj 0
10
Node Left Objective IInf Best_Integer Best_Bound ItCnt Gap
0+ 0 nan nan 131.6037 0.0000 nan 100.00%
0+ 0 nan nan 99.6733 0.0000 nan 100.00%
0 0 0.0000 23 99.6733 0.0000 121 100.00%
0 0 0.0000 21 99.6733 LiftProj:2 126 100.00%
0 0 0.0000 22 99.6733 LiftProj:4 146 100.00%
0+ 0 nan nan 95.8049 0.0000 nan 100.00%
0+ 0 nan nan 84.7322 0.0000 nan 100.00%
0 2 0.0000 20 84.7322 0.0000 146 100.00%
CPXPARAM_MIP_Cuts_LiftProj 0
11
Node Left Objective IInf Best_Integer Best_Bound ItCnt Gap
0+ 0 nan nan 131.6037 0.0000 nan 100.00%
0+ 0 nan nan 99.6733 0.0000 nan 100.00%
0 0 0.0000 23 99.6733 0.0000 121 100.00%
0+ 0 nan nan 70.7338 0.0000 nan 100.00%
0+ 0 nan nan 53.9195 0.0000 nan 100.00%
0 2 0.0000 14 53.9195 0.0000 121 100.00%
CPXPARAM_MIP_Cuts_LiftProj 0
12
Node Left Objective IInf Best_Integer Best_Bound ItCnt Gap
0+ 0 nan nan 110.3567 0.0000 nan 100.00%
0+ 0 nan nan 96.6816 0.0000 nan 100.00%
0 0 0.0000 27 96.6816 0.0000 120 100.00%
0 0 0.0000 25 96.6816 LiftProj:1 126 100.00%
0 0 0.0000 26 96.6816 LiftProj:7 139 100.00%
0 0 0.0000 25 96.6816 LiftProj:2 144 100.00%
0+ 0 nan nan 92.4094 0.0000 nan 100.00%
0+ 0 nan nan 88.9489 0.0000 nan 100.00%
0 2 0.0000 25 88.9489 0.0000 144 100.00%
CPXPARAM_MIP_Cuts_LiftProj 2
13
Node Left Objective IInf Best_Integer Best_Bound ItCnt Gap
0+ 0 nan nan 110.3567 0.0000 nan 100.00%
0+ 0 nan nan 96.6816 0.0000 nan 100.00%
0 0 0.0000 27 96.6816 0.0000 121 100.00%
0+ 0 nan nan 67.8692 0.0000 nan 100.00%
0 0 0.0000 19 67.8692 LiftProj:2 134 100.00%
0 0 0.0000 19 67.8692 LiftProj:1 135 100.00%
0 0 0.0000 20 67.8692 LiftProj:3 162 100.00%
0+ 0 nan nan 63.1533 0.0000 nan 100.00%
0 2 0.0000 19 63.1533 0.0000 162 100.00%
CPXPARAM_MIP_Cuts_LiftProj 1
14
Node Left Objective IInf Best_Integer Best_Bound ItCnt Gap
0+ 0 nan nan 110.3567 0.0000 nan 100.00%
0+ 0 nan nan 82.1268 0.0000 nan 100.00%
0 0 0.0000 23 82.1268 0.0000 121 100.00%
0 0 0.0000 20 82.1268 LiftProj:1 122 100.00%
0 0 0.0000 20 82.1268 LiftProj:7 141 100.00%
0 0 0.0000 21 82.1268 LiftProj:7 158 100.00%
0+ 0 nan nan 72.5772 0.0000 nan 100.00%
0 2 0.0000 21 72.5772 0.0000 158 100.00%
CPXPARAM_MIP_Cuts_LiftProj 1
15
Node Left Objective IInf Best_Integer Best_Bound ItCnt Gap
0+ 0 nan nan 110.3567 0.0000 nan 100.00%
0+ 0 nan nan 82.1268 0.0000 nan 100.00%
0 0 0.0000 23 82.1268 0.0000 117 100.00%
0+ 0 nan nan 59.2187 0.0000 nan 100.00%
0+ 0 nan nan 48.2055 0.0000 nan 100.00%
0+ 0 nan nan 48.1018 0.0000 nan 100.00%
0+ 0 nan nan 42.1408 0.0000 nan 100.00%
0 2 0.0000 13 42.1408 0.0000 117 100.00%
CPXPARAM_MIP_Cuts_LiftProj 0
16
Node Left Objective IInf Best_Integer Best_Bound ItCnt Gap
0+ 0 nan nan 109.2984 0.0000 nan 100.00%
0+ 0 nan nan 97.6971 0.0000 nan 100.00%
0 0 0.0000 27 97.6971 0.0000 113 100.00%
0 0 0.0000 26 97.6971 LiftProj:4 124 100.00%
0 0 0.0000 26 97.6971 LiftProj:4 139 100.00%
0+ 0 nan nan 81.5315 0.0000 nan 100.00%
0+ 0 nan nan 65.6098 0.0000 nan 100.00%
0 2 0.0000 25 65.6098 0.0000 139 100.00%
CPXPARAM_MIP_Cuts_LiftProj 0
17
Node Left Objective IInf Best_Integer Best_Bound ItCnt Gap
0+ 0 nan nan 109.2984 0.0000 nan 100.00%
0+ 0 nan nan 97.6971 0.0000 nan 100.00%
0 0 0.0000 27 97.6971 0.0000 121 100.00%
0+ 0 nan nan 49.1084 0.0000 nan 100.00%
0+ 0 nan nan 48.0274 0.0000 nan 100.00%
0 2 0.0000 18 48.0274 0.0000 121 100.00%
CPXPARAM_MIP_Cuts_LiftProj 0
18
Node Left Objective IInf Best_Integer Best_Bound ItCnt Gap
0+ 0 nan nan 109.2984 0.0000 nan 100.00%
0+ 0 nan nan 86.6088 0.0000 nan 100.00%
0 0 0.0000 23 86.6088 0.0000 118 100.00%
0 0 0.0000 21 86.6088 LiftProj:1 131 100.00%
0 0 0.0000 22 86.6088 LiftProj:6 151 100.00%
0+ 0 nan nan 84.0395 0.0000 nan 100.00%
0 0 0.0000 24 84.0395 LiftProj:6 173 100.00%
0+ 0 nan nan 71.3750 0.0000 nan 100.00%
0+ 0 nan nan 59.3540 0.0000 nan 100.00%
0 2 0.0000 22 59.3540 0.0000 173 100.00%
CPXPARAM_MIP_Cuts_LiftProj 1
19
Node Left Objective IInf Best_Integer Best_Bound ItCnt Gap
0+ 0 nan nan 109.2984 0.0000 nan 100.00%
0+ 0 nan nan 86.6088 0.0000 nan 100.00%
0 0 0.0000 24 86.6088 0.0000 117 100.00%
0+ 0 nan nan 44.8537 0.0000 nan 100.00%
0+ 0 nan nan 27.7409 0.0000 nan 100.00%
0 2 0.0000 14 27.7409 0.0000 117 100.00%
CPXPARAM_MIP_Cuts_LiftProj 0
20
Node Left Objective IInf Best_Integer Best_Bound ItCnt Gap
0+ 0 nan nan 93.3792 0.0000 nan 100.00%
0+ 0 nan nan 84.6822 0.0000 nan 100.00%
0 0 0.0000 27 84.6822 0.0000 131 100.00%
0+ 0 nan nan 70.9667 0.0000 nan 100.00%
0 0 0.0000 25 70.9667 LiftProj:1 132 100.00%
0+ 0 nan nan 70.8397 0.0000 nan 100.00%
0 0 0.0000 26 70.8397 LiftProj:8 150 100.00%
0+ 0 nan nan 59.8416 0.0000 nan 100.00%
0+ 0 nan nan 59.8276 0.0000 nan 100.00%
0 2 0.0000 25 59.8276 0.0000 150 100.00%
CPXPARAM_MIP_Cuts_LiftProj 0
21
Node Left Objective IInf Best_Integer Best_Bound ItCnt Gap
0+ 0 nan nan 93.3792 0.0000 nan 100.00%
0+ 0 nan nan 84.6822 0.0000 nan 100.00%
0 0 0.0000 27 84.6822 0.0000 125 100.00%
0+ 0 nan nan 46.5828 0.0000 nan 100.00%
0 0 0.0000 18 46.5828 LiftProj:1 129 100.00%
0 0 0.0000 18 46.5828 LiftProj:2 138 100.00%
0 0 0.0000 20 46.5828 LiftProj:3 150 100.00%
0+ 0 nan nan 44.9665 0.0000 nan 100.00%
0 2 0.0000 18 44.9665 0.0000 150 100.00%
CPXPARAM_MIP_Cuts_LiftProj 0
22
Node Left Objective IInf Best_Integer Best_Bound ItCnt Gap
0+ 0 nan nan 93.3792 0.0000 nan 100.00%
0+ 0 nan nan 77.4137 0.0000 nan 100.00%
0 0 0.0000 23 77.4137 0.0000 135 100.00%
0+ 0 nan nan 61.3589 0.0000 nan 100.00%
0+ 0 nan nan 58.3127 0.0000 nan 100.00%
0+ 0 nan nan 48.2120 0.0000 nan 100.00%
0+ 0 nan nan 39.1372 0.0000 nan 100.00%
0 2 0.0000 20 39.1372 0.0000 135 100.00%
CPXPARAM_MIP_Cuts_LiftProj 0
23
Node Left Objective IInf Best_Integer Best_Bound ItCnt Gap
0+ 0 nan nan 93.3792 0.0000 nan 100.00%
0+ 0 nan nan 77.4137 0.0000 nan 100.00%
0 0 0.0000 23 77.4137 0.0000 115 100.00%
0+ 0 nan nan 44.4047 0.0000 nan 100.00%
0 0 0.0000 14 44.4047 LiftProj:2 120 100.00%
0+ 0 nan nan 41.2468 0.0000 nan 100.00%
0 0 0.0000 15 41.2468 LiftProj:3 132 100.00%
0 0 0.0000 13 41.2468 LiftProj:1 145 100.00%
0+ 0 nan nan 40.7333 0.0000 nan 100.00%
0+ 0 nan nan 31.5997 0.0000 nan 100.00%
0 2 0.0000 13 31.5997 0.0000 145 100.00%
CPXPARAM_MIP_Cuts_LiftProj 1
24
Node Left Objective IInf Best_Integer Best_Bound ItCnt Gap
0+ 0 nan nan 94.5045 0.0000 nan 100.00%
0+ 0 nan nan 83.7373 0.0000 nan 100.00%
0 0 0.0000 27 83.7373 0.0000 126 100.00%
0+ 0 nan nan 75.2022 0.0000 nan 100.00%
0 0 0.0000 26 75.2022 LiftProj:1 133 100.00%
0+ 0 nan nan 74.2312 0.0000 nan 100.00%
0 0 0.0000 26 74.2312 LiftProj:7 159 100.00%
0 0 0.0000 26 74.2312 LiftProj:2 176 100.00%
0+ 0 nan nan 71.7429 0.0000 nan 100.00%
0+ 0 nan nan 63.5583 0.0000 nan 100.00%
0+ 0 nan nan 62.6423 0.0000 nan 100.00%
0+ 0 nan nan 59.7385 0.0000 nan 100.00%
0 2 0.0000 25 59.7385 0.0000 176 100.00%
CPXPARAM_MIP_Cuts_LiftProj 1
25
Node Left Objective IInf Best_Integer Best_Bound ItCnt Gap
0+ 0 nan nan 94.5045 0.0000 nan 100.00%
0+ 0 nan nan 83.7373 0.0000 nan 100.00%
0 0 0.0000 27 83.7373 0.0000 119 100.00%
0+ 0 nan nan 62.9306 0.0000 nan 100.00%
0 0 0.0000 19 62.9306 LiftProj:3 129 100.00%
0 0 0.0000 19 62.9306 LiftProj:5 155 100.00%
0+ 0 nan nan 61.2395 0.0000 nan 100.00%
0 0 0.0000 20 61.2395 LiftProj:5 171 100.00%
0+ 0 nan nan 61.0779 0.0000 nan 100.00%
0+ 0 nan nan 59.3336 0.0000 nan 100.00%
0+ 0 nan nan 53.8995 0.0000 nan 100.00%
0 2 0.0000 18 53.8995 0.0000 171 100.00%
CPXPARAM_MIP_Cuts_LiftProj 1
26
Node Left Objective IInf Best_Integer Best_Bound ItCnt Gap
0+ 0 nan nan 94.5045 0.0000 nan 100.00%
0+ 0 nan nan 77.4984 0.0000 nan 100.00%
0 0 0.0000 23 77.4984 0.0000 120 100.00%
0+ 0 nan nan 68.8610 0.0000 nan 100.00%
0 0 0.0000 21 68.8610 LiftProj:1 131 100.00%
0+ 0 nan nan 68.7941 0.0000 nan 100.00%
0 0 0.0000 22 68.7941 LiftProj:4 160 100.00%
0+ 0 nan nan 67.1915 0.0000 nan 100.00%
0+ 0 nan nan 47.0164 0.0000 nan 100.00%
0 2 0.0000 20 47.0164 0.0000 160 100.00%
CPXPARAM_MIP_Cuts_LiftProj 1
27
Node Left Objective IInf Best_Integer Best_Bound ItCnt Gap
0+ 0 nan nan 94.5045 0.0000 nan 100.00%
0+ 0 nan nan 77.4984 0.0000 nan 100.00%
0 0 0.0000 23 77.4984 0.0000 116 100.00%
0+ 0 nan nan 42.7585 0.0000 nan 100.00%
0+ 0 nan nan 32.3132 0.0000 nan 100.00%
0 2 0.0000 13 32.3132 0.0000 116 100.00%
CPXPARAM_MIP_Cuts_LiftProj 0
28
Node Left Objective IInf Best_Integer Best_Bound ItCnt Gap
0+ 0 nan nan 133.7092 0.0000 nan 100.00%
0+ 0 nan nan 129.6212 0.0000 nan 100.00%
0+ 0 nan nan 108.6480 0.0000 nan 100.00%
0 0 0.0000 27 108.6480 0.0000 133 100.00%
0 0 0.0000 26 108.6480 LiftProj:2 143 100.00%
0 0 0.0000 25 108.6480 LiftProj:7 170 100.00%
0 0 0.0000 25 108.6480 LiftProj:5 176 100.00%
0+ 0 nan nan 101.6251 0.0000 nan 100.00%
0+ 0 nan nan 90.3098 0.0000 nan 100.00%
0 2 0.0000 25 90.3098 0.0000 176 100.00%
CPXPARAM_MIP_Cuts_LiftProj 1
29
Node Left Objective IInf Best_Integer Best_Bound ItCnt Gap
0+ 0 nan nan 133.7092 0.0000 nan 100.00%
0+ 0 nan nan 129.6212 0.0000 nan 100.00%
0 0 0.0000 28 129.6212 0.0000 125 100.00%
0+ 0 nan nan 64.4748 0.0000 nan 100.00%
0+ 0 nan nan 63.1629 0.0000 nan 100.00%
0+ 0 nan nan 61.6458 0.0000 nan 100.00%
0 2 0.0000 19 61.6458 0.0000 125 100.00%
CPXPARAM_MIP_Cuts_LiftProj 0
30
Node Left Objective IInf Best_Integer Best_Bound ItCnt Gap
0+ 0 nan nan 133.7092 0.0000 nan 100.00%
0+ 0 nan nan 114.7297 0.0000 nan 100.00%
0 0 0.0000 23 114.7297 0.0000 115 100.00%
0+ 0 nan nan 105.7685 0.0000 nan 100.00%
0 0 0.0000 20 105.7685 LiftProj:3 124 100.00%
0+ 0 nan nan 103.8031 0.0000 nan 100.00%
0 0 0.0000 21 103.8031 LiftProj:4 151 100.00%
0 0 0.0000 23 103.8031 LiftProj:11 190 100.00%
0+ 0 nan nan 82.8290 0.0000 nan 100.00%
0+ 0 nan nan 72.2839 0.0000 nan 100.00%
0 2 0.0000 21 72.2839 0.0000 190 100.00%
CPXPARAM_MIP_Cuts_LiftProj 1
31
Node Left Objective IInf Best_Integer Best_Bound ItCnt Gap
0+ 0 nan nan 133.7092 0.0000 nan 100.00%
0+ 0 nan nan 114.7297 0.0000 nan 100.00%
0 0 0.0000 23 114.7297 0.0000 128 100.00%
0+ 0 nan nan 68.5774 0.0000 nan 100.00%
0+ 0 nan nan 64.2060 0.0000 nan 100.00%
0+ 0 nan nan 57.1399 0.0000 nan 100.00%
0 2 0.0000 14 57.1399 0.0000 128 100.00%
CPXPARAM_MIP_Cuts_LiftProj 0
32
Node Left Objective IInf Best_Integer Best_Bound ItCnt Gap
0+ 0 nan nan 110.7059 0.0000 nan 100.00%
0+ 0 nan nan 93.8685 0.0000 nan 100.00%
0+ 0 nan nan 88.1652 0.0000 nan 100.00%
0 0 0.0000 27 88.1652 0.0000 119 100.00%
0 0 0.0000 26 88.1652 LiftProj:2 130 100.00%
0 0 0.0000 26 88.1652 LiftProj:8 148 100.00%
0 0 0.0000 27 88.1652 LiftProj:10 174 100.00%
0+ 0 nan nan 83.0854 0.0000 nan 100.00%
0 2 0.0000 25 83.0854 0.0000 174 100.00%
CPXPARAM_MIP_Cuts_LiftProj 1
33
Node Left Objective IInf Best_Integer Best_Bound ItCnt Gap
0+ 0 nan nan 110.7059 0.0000 nan 100.00%
0+ 0 nan nan 93.8685 0.0000 nan 100.00%
0 0 0.0000 27 93.8685 0.0000 116 100.00%
0+ 0 nan nan 60.5684 0.0000 nan 100.00%
0+ 0 nan nan 41.4875 0.0000 nan 100.00%
0 2 0.0000 18 41.4875 0.0000 116 100.00%
CPXPARAM_MIP_Cuts_LiftProj 0
34
Node Left Objective IInf Best_Integer Best_Bound ItCnt Gap
0+ 0 nan nan 110.7059 0.0000 nan 100.00%
0+ 0 nan nan 74.9711 0.0000 nan 100.00%
0 0 0.0000 23 74.9711 0.0000 120 100.00%
0+ 0 nan nan 70.5384 0.0000 nan 100.00%
0 0 0.0000 20 70.5384 LiftProj:3 121 100.00%
0+ 0 nan nan 68.4582 0.0000 nan 100.00%
0 0 0.0000 22 68.4582 LiftProj:5 132 100.00%
0 0 0.0000 22 68.4582 LiftProj:5 143 100.00%
0+ 0 nan nan 56.5884 0.0000 nan 100.00%
0 2 0.0000 22 56.5884 0.0000 143 100.00%
CPXPARAM_MIP_Cuts_LiftProj 3
35
Node Left Objective IInf Best_Integer Best_Bound ItCnt Gap
0+ 0 nan nan 110.7059 0.0000 nan 100.00%
0+ 0 nan nan 74.9711 0.0000 nan 100.00%
0 0 0.0000 23 74.9711 0.0000 113 100.00%
0+ 0 nan nan 53.1990 0.0000 nan 100.00%
0+ 0 nan nan 49.8685 0.0000 nan 100.00%
0 2 0.0000 15 49.8685 0.0000 113 100.00%
CPXPARAM_MIP_Cuts_LiftProj 0
36
Node Left Objective IInf Best_Integer Best_Bound ItCnt Gap
0+ 0 nan nan 123.7135 0.0000 nan 100.00%
0+ 0 nan nan 108.6148 0.0000 nan 100.00%
0+ 0 nan nan 99.0366 0.0000 nan 100.00%
0 0 0.0000 27 99.0366 0.0000 131 100.00%
0+ 0 nan nan 98.7082 0.0000 nan 100.00%
0 0 0.0000 25 98.7082 LiftProj:3 138 100.00%
0+ 0 nan nan 97.3821 0.0000 nan 100.00%
0 0 0.0000 26 97.3821 LiftProj:6 157 100.00%
0+ 0 nan nan 95.5359 0.0000 nan 100.00%
0 0 0.0000 26 95.5359 LiftProj:1 162 100.00%
0+ 0 nan nan 92.6927 0.0000 nan 100.00%
0+ 0 nan nan 74.8469 0.0000 nan 100.00%
0 2 0.0000 25 74.8469 0.0000 162 100.00%
CPXPARAM_MIP_Cuts_LiftProj 1
37
Node Left Objective IInf Best_Integer Best_Bound ItCnt Gap
0+ 0 nan nan 123.7135 0.0000 nan 100.00%
0+ 0 nan nan 108.6148 0.0000 nan 100.00%
0 0 0.0000 27 108.6148 0.0000 128 100.00%
0+ 0 nan nan 83.1888 0.0000 nan 100.00%
0+ 0 nan nan 80.2505 0.0000 nan 100.00%
0+ 0 nan nan 58.5686 0.0000 nan 100.00%
0 2 0.0000 18 58.5686 0.0000 128 100.00%
CPXPARAM_MIP_Cuts_LiftProj 0
38
Node Left Objective IInf Best_Integer Best_Bound ItCnt Gap
0+ 0 nan nan 123.7135 0.0000 nan 100.00%
0+ 0 nan nan 89.1896 0.0000 nan 100.00%
0 0 0.0000 23 89.1896 0.0000 134 100.00%
0+ 0 nan nan 83.5087 0.0000 nan 100.00%
0+ 0 nan nan 70.6626 0.0000 nan 100.00%
0+ 0 nan nan 59.3814 0.0000 nan 100.00%
0+ 0 nan nan 58.6083 0.0000 nan 100.00%
0 2 0.0000 20 58.6083 0.0000 134 100.00%
CPXPARAM_MIP_Cuts_LiftProj 0
39
Node Left Objective IInf Best_Integer Best_Bound ItCnt Gap
0+ 0 nan nan 123.7135 0.0000 nan 100.00%
0+ 0 nan nan 89.1896 0.0000 nan 100.00%
0 0 0.0000 24 89.1896 0.0000 114 100.00%
0+ 0 nan nan 58.9767 0.0000 nan 100.00%
0+ 0 nan nan 54.7604 0.0000 nan 100.00%
0+ 0 nan nan 52.9230 0.0000 nan 100.00%
0+ 0 nan nan 35.3690 0.0000 nan 100.00%
0 2 0.0000 14 35.3690 0.0000 114 100.00%
CPXPARAM_MIP_Cuts_LiftProj 0
